p cnf 288 1374
-1 -223 0
-1 -224 0
-1 -225 0
-2 223 0
-2 -224 0
-2 -225 0
-3 -223 0
-3 224 0
-3 -225 0
-4 223 0
-4 224 0
-4 -225 0
-5 -223 0
-5 -224 0
-5 225 0
-6 223 0
-6 -224 0
-6 225 0
1 2 3 4 5 6 0
-1 37 0
-1 7 0
-2 38 0
-2 8 0
-3 39 0
-3 9 0
-4 40 0
-4 10 0
-5 41 0
-5 11 0
-6 42 0
-6 12 0
-7 -226 0
-7 -227 0
-7 -228 0
-8 226 0
-8 -227 0
-8 -228 0
-9 -226 0
-9 227 0
-9 -228 0
-10 226 0
-10 227 0
-10 -228 0
-11 -226 0
-11 -227 0
-11 228 0
-12 226 0
-12 -227 0
-12 228 0
7 8 9 10 11 12 0
-7 1 13 0
-7 1 43 0
-7 13 43 0
-8 2 14 0
-8 2 44 0
-8 14 44 0
-9 3 15 0
-9 3 45 0
-9 15 45 0
-10 4 16 0
-10 4 46 0
-10 16 46 0
-11 5 17 0
-11 5 47 0
-11 17 47 0
-12 6 18 0
-12 6 48 0
-12 18 48 0
-7 -1 -13 -43 0
-8 -2 -14 -44 0
-9 -3 -15 -45 0
-10 -4 -16 -46 0
-11 -5 -17 -47 0
-12 -6 -18 -48 0
13 0
-14 0
-15 0
-16 0
-17 0
-18 0
7 19 49 0
-7 -19 0
-7 -49 0
-19 -49 0
20 0
-19 0
-21 0
-22 0
-23 0
-24 0
14 26 56 0
-14 -26 0
-14 -56 0
-26 -56 0
27 0
-25 0
-26 0
-28 0
-29 0
-30 0
21 33 63 0
-21 -33 0
-21 -63 0
-33 -63 0
-31 -238 0
-31 -239 0
-31 -240 0
-32 238 0
-32 -239 0
-32 -240 0
-33 -238 0
-33 239 0
-33 -240 0
-34 238 0
-34 239 0
-34 -240 0
-35 -238 0
-35 -239 0
-35 240 0
-36 238 0
-36 -239 0
-36 240 0
31 32 33 34 35 36 0
-31 67 0
-31 25 0
-32 68 0
-32 26 0
-33 69 0
-33 27 0
-34 70 0
-34 28 0
-35 71 0
-35 29 0
-36 72 0
-36 30 0
37 0
-38 0
-39 0
-40 0
-41 0
-42 0
73 43 1 0
-73 -43 0
-73 -1 0
-43 -1 0
48 0
-43 0
-44 0
-45 0
-46 0
-47 0
84 54 12 42 0
-84 -54 0
-84 -12 0
-84 -42 0
-54 -12 0
-54 -42 0
-12 -42 0
-49 -247 0
-49 -248 0
-49 -249 0
-50 247 0
-50 -248 0
-50 -249 0
-51 -247 0
-51 248 0
-51 -249 0
-52 247 0
-52 248 0
-52 -249 0
-53 -247 0
-53 -248 0
-53 249 0
-54 247 0
-54 -248 0
-54 249 0
49 50 51 52 53 54 0
-49 85 55 13 0
-49 85 55 43 0
-49 85 13 43 0
-49 55 13 43 0
-50 86 56 14 0
-50 86 56 44 0
-50 86 14 44 0
-50 56 14 44 0
-51 87 57 15 0
-51 87 57 45 0
-51 87 15 45 0
-51 57 15 45 0
-52 88 58 16 0
-52 88 58 46 0
-52 88 16 46 0
-52 58 16 46 0
-53 89 59 17 0
-53 89 59 47 0
-53 89 17 47 0
-53 59 17 47 0
-54 90 60 18 0
-54 90 60 48 0
-54 90 18 48 0
-54 60 18 48 0
-49 -85 -55 -13 0
-49 -85 -55 -43 0
-49 -85 -13 -43 0
-49 -55 -13 -43 0
-50 -86 -56 -14 0
-50 -86 -56 -44 0
-50 -86 -14 -44 0
-50 -56 -14 -44 0
-51 -87 -57 -15 0
-51 -87 -57 -45 0
-51 -87 -15 -45 0
-51 -57 -15 -45 0
-52 -88 -58 -16 0
-52 -88 -58 -46 0
-52 -88 -16 -46 0
-52 -58 -16 -46 0
-53 -89 -59 -17 0
-53 -89 -59 -47 0
-53 -89 -17 -47 0
-53 -59 -17 -47 0
-54 -90 -60 -18 0
-54 -90 -60 -48 0
-54 -90 -18 -48 0
-54 -60 -18 -48 0
-55 -250 0
-55 -251 0
-55 -252 0
-56 250 0
-56 -251 0
-56 -252 0
-57 -250 0
-57 251 0
-57 -252 0
-58 250 0
-58 251 0
-58 -252 0
-59 -250 0
-59 -251 0
-59 252 0
-60 250 0
-60 -251 0
-60 252 0
55 56 57 58 59 60 0
-55 91 61 19 0
-55 91 61 49 0
-55 91 19 49 0
-55 61 19 49 0
-56 92 62 20 0
-56 92 62 50 0
-56 92 20 50 0
-56 62 20 50 0
-57 93 63 21 0
-57 93 63 51 0
-57 93 21 51 0
-57 63 21 51 0
-58 94 64 22 0
-58 94 64 52 0
-58 94 22 52 0
-58 64 22 52 0
-59 95 65 23 0
-59 95 65 53 0
-59 95 23 53 0
-59 65 23 53 0
-60 96 66 24 0
-60 96 66 54 0
-60 96 24 54 0
-60 66 24 54 0
-55 -91 -61 -19 0
-55 -91 -61 -49 0
-55 -91 -19 -49 0
-55 -61 -19 -49 0
-56 -92 -62 -20 0
-56 -92 -62 -50 0
-56 -92 -20 -50 0
-56 -62 -20 -50 0
-57 -93 -63 -21 0
-57 -93 -63 -51 0
-57 -93 -21 -51 0
-57 -63 -21 -51 0
-58 -94 -64 -22 0
-58 -94 -64 -52 0
-58 -94 -22 -52 0
-58 -64 -22 -52 0
-59 -95 -65 -23 0
-59 -95 -65 -53 0
-59 -95 -23 -53 0
-59 -65 -23 -53 0
-60 -96 -66 -24 0
-60 -96 -66 -54 0
-60 -96 -24 -54 0
-60 -66 -24 -54 0
-61 -253 0
-61 -254 0
-61 -255 0
-62 253 0
-62 -254 0
-62 -255 0
-63 -253 0
-63 254 0
-63 -255 0
-64 253 0
-64 254 0
-64 -255 0
-65 -253 0
-65 -254 0
-65 255 0
-66 253 0
-66 -254 0
-66 255 0
61 62 63 64 65 66 0
-61 97 67 25 0
-61 97 67 55 0
-61 97 25 55 0
-61 67 25 55 0
-62 98 68 26 0
-62 98 68 56 0
-62 98 26 56 0
-62 68 26 56 0
-63 99 69 27 0
-63 99 69 57 0
-63 99 27 57 0
-63 69 27 57 0
-64 100 70 28 0
-64 100 70 58 0
-64 100 28 58 0
-64 70 28 58 0
-65 101 71 29 0
-65 101 71 59 0
-65 101 29 59 0
-65 71 29 59 0
-66 102 72 30 0
-66 102 72 60 0
-66 102 30 60 0
-66 72 30 60 0
-61 -97 -67 -25 0
-61 -97 -67 -55 0
-61 -97 -25 -55 0
-61 -67 -25 -55 0
-62 -98 -68 -26 0
-62 -98 -68 -56 0
-62 -98 -26 -56 0
-62 -68 -26 -56 0
-63 -99 -69 -27 0
-63 -99 -69 -57 0
-63 -99 -27 -57 0
-63 -69 -27 -57 0
-64 -100 -70 -28 0
-64 -100 -70 -58 0
-64 -100 -28 -58 0
-64 -70 -28 -58 0
-65 -101 -71 -29 0
-65 -101 -71 -59 0
-65 -101 -29 -59 0
-65 -71 -29 -59 0
-66 -102 -72 -30 0
-66 -102 -72 -60 0
-66 -102 -30 -60 0
-66 -72 -30 -60 0
-67 -256 0
-67 -257 0
-67 -258 0
-68 256 0
-68 -257 0
-68 -258 0
-69 -256 0
-69 257 0
-69 -258 0
-70 256 0
-70 257 0
-70 -258 0
-71 -256 0
-71 -257 0
-71 258 0
-72 256 0
-72 -257 0
-72 258 0
67 68 69 70 71 72 0
-67 103 61 0
-67 103 31 0
-67 61 31 0
-68 104 62 0
-68 104 32 0
-68 62 32 0
-69 105 63 0
-69 105 33 0
-69 63 33 0
-70 106 64 0
-70 106 34 0
-70 64 34 0
-71 107 65 0
-71 107 35 0
-71 65 35 0
-72 108 66 0
-72 108 36 0
-72 66 36 0
-67 -103 -61 -31 0
-68 -104 -62 -32 0
-69 -105 -63 -33 0
-70 -106 -64 -34 0
-71 -107 -65 -35 0
-72 -108 -66 -36 0
76 0
-73 0
-74 0
-75 0
-77 0
-78 0
112 82 40 0
-112 -82 0
-112 -40 0
-82 -40 0
-79 -262 0
-79 -263 0
-79 -264 0
-80 262 0
-80 -263 0
-80 -264 0
-81 -262 0
-81 263 0
-81 -264 0
-82 262 0
-82 263 0
-82 -264 0
-83 -262 0
-83 -263 0
-83 264 0
-84 262 0
-84 -263 0
-84 264 0
79 80 81 82 83 84 0
-79 115 85 43 0
-79 115 85 73 0
-79 115 43 73 0
-79 85 43 73 0
-80 116 86 44 0
-80 116 86 74 0
-80 116 44 74 0
-80 86 44 74 0
-81 117 87 45 0
-81 117 87 75 0
-81 117 45 75 0
-81 87 45 75 0
-82 118 88 46 0
-82 118 88 76 0
-82 118 46 76 0
-82 88 46 76 0
-83 119 89 47 0
-83 119 89 77 0
-83 119 47 77 0
-83 89 47 77 0
-84 120 90 48 0
-84 120 90 78 0
-84 120 48 78 0
-84 90 48 78 0
-79 -115 -85 -43 0
-79 -115 -85 -73 0
-79 -115 -43 -73 0
-79 -85 -43 -73 0
-80 -116 -86 -44 0
-80 -116 -86 -74 0
-80 -116 -44 -74 0
-80 -86 -44 -74 0
-81 -117 -87 -45 0
-81 -117 -87 -75 0
-81 -117 -45 -75 0
-81 -87 -45 -75 0
-82 -118 -88 -46 0
-82 -118 -88 -76 0
-82 -118 -46 -76 0
-82 -88 -46 -76 0
-83 -119 -89 -47 0
-83 -119 -89 -77 0
-83 -119 -47 -77 0
-83 -89 -47 -77 0
-84 -120 -90 -48 0
-84 -120 -90 -78 0
-84 -120 -48 -78 0
-84 -90 -48 -78 0
90 0
-85 0
-86 0
-87 0
-88 0
-89 0
126 96 54 84 0
-126 -96 0
-126 -54 0
-126 -84 0
-96 -54 0
-96 -84 0
-54 -84 0
95 0
-91 0
-92 0
-93 0
-94 0
-96 0
131 101 59 89 0
-131 -101 0
-131 -59 0
-131 -89 0
-101 -59 0
-101 -89 0
-59 -89 0
-97 -271 0
-97 -272 0
-97 -273 0
-98 271 0
-98 -272 0
-98 -273 0
-99 -271 0
-99 272 0
-99 -273 0
-100 271 0
-100 272 0
-100 -273 0
-101 -271 0
-101 -272 0
-101 273 0
-102 271 0
-102 -272 0
-102 273 0
97 98 99 100 101 102 0
-97 133 103 61 0
-97 133 103 91 0
-97 133 61 91 0
-97 103 61 91 0
-98 134 104 62 0
-98 134 104 92 0
-98 134 62 92 0
-98 104 62 92 0
-99 135 105 63 0
-99 135 105 93 0
-99 135 63 93 0
-99 105 63 93 0
-100 136 106 64 0
-100 136 106 94 0
-100 136 64 94 0
-100 106 64 94 0
-101 137 107 65 0
-101 137 107 95 0
-101 137 65 95 0
-101 107 65 95 0
-102 138 108 66 0
-102 138 108 96 0
-102 138 66 96 0
-102 108 66 96 0
-97 -133 -103 -61 0
-97 -133 -103 -91 0
-97 -133 -61 -91 0
-97 -103 -61 -91 0
-98 -134 -104 -62 0
-98 -134 -104 -92 0
-98 -134 -62 -92 0
-98 -104 -62 -92 0
-99 -135 -105 -63 0
-99 -135 -105 -93 0
-99 -135 -63 -93 0
-99 -105 -63 -93 0
-100 -136 -106 -64 0
-100 -136 -106 -94 0
-100 -136 -64 -94 0
-100 -106 -64 -94 0
-101 -137 -107 -65 0
-101 -137 -107 -95 0
-101 -137 -65 -95 0
-101 -107 -65 -95 0
-102 -138 -108 -66 0
-102 -138 -108 -96 0
-102 -138 -66 -96 0
-102 -108 -66 -96 0
-103 -274 0
-103 -275 0
-103 -276 0
-104 274 0
-104 -275 0
-104 -276 0
-105 -274 0
-105 275 0
-105 -276 0
-106 274 0
-106 275 0
-106 -276 0
-107 -274 0
-107 -275 0
-107 276 0
-108 274 0
-108 -275 0
-108 276 0
103 104 105 106 107 108 0
-103 139 97 0
-103 139 67 0
-103 97 67 0
-104 140 98 0
-104 140 68 0
-104 98 68 0
-105 141 99 0
-105 141 69 0
-105 99 69 0
-106 142 100 0
-106 142 70 0
-106 100 70 0
-107 143 101 0
-107 143 71 0
-107 101 71 0
-108 144 102 0
-108 144 72 0
-108 102 72 0
-103 -139 -97 -67 0
-104 -140 -98 -68 0
-105 -141 -99 -69 0
-106 -142 -100 -70 0
-107 -143 -101 -71 0
-108 -144 -102 -72 0
111 0
-109 0
-110 0
-112 0
-113 0
-114 0
147 117 75 0
-147 -117 0
-147 -75 0
-117 -75 0
-115 -280 0
-115 -281 0
-115 -282 0
-116 280 0
-116 -281 0
-116 -282 0
-117 -280 0
-117 281 0
-117 -282 0
-118 280 0
-118 281 0
-118 -282 0
-119 -280 0
-119 -281 0
-119 282 0
-120 280 0
-120 -281 0
-120 282 0
115 116 117 118 119 120 0
-115 151 121 79 0
-115 151 121 109 0
-115 151 79 109 0
-115 121 79 109 0
-116 152 122 80 0
-116 152 122 110 0
-116 152 80 110 0
-116 122 80 110 0
-117 153 123 81 0
-117 153 123 111 0
-117 153 81 111 0
-117 123 81 111 0
-118 154 124 82 0
-118 154 124 112 0
-118 154 82 112 0
-118 124 82 112 0
-119 155 125 83 0
-119 155 125 113 0
-119 155 83 113 0
-119 125 83 113 0
-120 156 126 84 0
-120 156 126 114 0
-120 156 84 114 0
-120 126 84 114 0
-115 -151 -121 -79 0
-115 -151 -121 -109 0
-115 -151 -79 -109 0
-115 -121 -79 -109 0
-116 -152 -122 -80 0
-116 -152 -122 -110 0
-116 -152 -80 -110 0
-116 -122 -80 -110 0
-117 -153 -123 -81 0
-117 -153 -123 -111 0
-117 -153 -81 -111 0
-117 -123 -81 -111 0
-118 -154 -124 -82 0
-118 -154 -124 -112 0
-118 -154 -82 -112 0
-118 -124 -82 -112 0
-119 -155 -125 -83 0
-119 -155 -125 -113 0
-119 -155 -83 -113 0
-119 -125 -83 -113 0
-120 -156 -126 -84 0
-120 -156 -126 -114 0
-120 -156 -84 -114 0
-120 -126 -84 -114 0
125 0
-121 0
-122 0
-123 0
-124 0
-126 0
161 131 89 119 0
-161 -131 0
-161 -89 0
-161 -119 0
-131 -89 0
-131 -119 0
-89 -119 0
-127 -286 0
-127 -287 0
-127 -288 0
-128 286 0
-128 -287 0
-128 -288 0
-129 -286 0
-129 287 0
-129 -288 0
-130 286 0
-130 287 0
-130 -288 0
-131 -286 0
-131 -287 0
-131 288 0
-132 286 0
-132 -287 0
-132 288 0
127 128 129 130 131 132 0
-127 163 133 91 0
-127 163 133 121 0
-127 163 91 121 0
-127 133 91 121 0
-128 164 134 92 0
-128 164 134 122 0
-128 164 92 122 0
-128 134 92 122 0
-129 165 135 93 0
-129 165 135 123 0
-129 165 93 123 0
-129 135 93 123 0
-130 166 136 94 0
-130 166 136 124 0
-130 166 94 124 0
-130 136 94 124 0
-131 167 137 95 0
-131 167 137 125 0
-131 167 95 125 0
-131 137 95 125 0
-132 168 138 96 0
-132 168 138 126 0
-132 168 96 126 0
-132 138 96 126 0
-127 -163 -133 -91 0
-127 -163 -133 -121 0
-127 -163 -91 -121 0
-127 -133 -91 -121 0
-128 -164 -134 -92 0
-128 -164 -134 -122 0
-128 -164 -92 -122 0
-128 -134 -92 -122 0
-129 -165 -135 -93 0
-129 -165 -135 -123 0
-129 -165 -93 -123 0
-129 -135 -93 -123 0
-130 -166 -136 -94 0
-130 -166 -136 -124 0
-130 -166 -94 -124 0
-130 -136 -94 -124 0
-131 -167 -137 -95 0
-131 -167 -137 -125 0
-131 -167 -95 -125 0
-131 -137 -95 -125 0
-132 -168 -138 -96 0
-132 -168 -138 -126 0
-132 -168 -96 -126 0
-132 -138 -96 -126 0
-133 -289 0
-133 -290 0
-133 -291 0
-134 289 0
-134 -290 0
-134 -291 0
-135 -289 0
-135 290 0
-135 -291 0
-136 289 0
-136 290 0
-136 -291 0
-137 -289 0
-137 -290 0
-137 291 0
-138 289 0
-138 -290 0
-138 291 0
133 134 135 136 137 138 0
-133 169 139 97 0
-133 169 139 127 0
-133 169 97 127 0
-133 139 97 127 0
-134 170 140 98 0
-134 170 140 128 0
-134 170 98 128 0
-134 140 98 128 0
-135 171 141 99 0
-135 171 141 129 0
-135 171 99 129 0
-135 141 99 129 0
-136 172 142 100 0
-136 172 142 130 0
-136 172 100 130 0
-136 142 100 130 0
-137 173 143 101 0
-137 173 143 131 0
-137 173 101 131 0
-137 143 101 131 0
-138 174 144 102 0
-138 174 144 132 0
-138 174 102 132 0
-138 144 102 132 0
-133 -169 -139 -97 0
-133 -169 -139 -127 0
-133 -169 -97 -127 0
-133 -139 -97 -127 0
-134 -170 -140 -98 0
-134 -170 -140 -128 0
-134 -170 -98 -128 0
-134 -140 -98 -128 0
-135 -171 -141 -99 0
-135 -171 -141 -129 0
-135 -171 -99 -129 0
-135 -141 -99 -129 0
-136 -172 -142 -100 0
-136 -172 -142 -130 0
-136 -172 -100 -130 0
-136 -142 -100 -130 0
-137 -173 -143 -101 0
-137 -173 -143 -131 0
-137 -173 -101 -131 0
-137 -143 -101 -131 0
-138 -174 -144 -102 0
-138 -174 -144 -132 0
-138 -174 -102 -132 0
-138 -144 -102 -132 0
-139 -292 0
-139 -293 0
-139 -294 0
-140 292 0
-140 -293 0
-140 -294 0
-141 -292 0
-141 293 0
-141 -294 0
-142 292 0
-142 293 0
-142 -294 0
-143 -292 0
-143 -293 0
-143 294 0
-144 292 0
-144 -293 0
-144 294 0
139 140 141 142 143 144 0
-139 175 133 0
-139 175 103 0
-139 133 103 0
-140 176 134 0
-140 176 104 0
-140 134 104 0
-141 177 135 0
-141 177 105 0
-141 135 105 0
-142 178 136 0
-142 178 106 0
-142 136 106 0
-143 179 137 0
-143 179 107 0
-143 137 107 0
-144 180 138 0
-144 180 108 0
-144 138 108 0
-139 -175 -133 -103 0
-140 -176 -134 -104 0
-141 -177 -135 -105 0
-142 -178 -136 -106 0
-143 -179 -137 -107 0
-144 -180 -138 -108 0
-145 -295 0
-145 -296 0
-145 -297 0
-146 295 0
-146 -296 0
-146 -297 0
-147 -295 0
-147 296 0
-147 -297 0
-148 295 0
-148 296 0
-148 -297 0
-149 -295 0
-149 -296 0
-149 297 0
-150 295 0
-150 -296 0
-150 297 0
145 146 147 148 149 150 0
-145 181 151 0
-145 181 109 0
-145 151 109 0
-146 182 152 0
-146 182 110 0
-146 152 110 0
-147 183 153 0
-147 183 111 0
-147 153 111 0
-148 184 154 0
-148 184 112 0
-148 154 112 0
-149 185 155 0
-149 185 113 0
-149 155 113 0
-150 186 156 0
-150 186 114 0
-150 156 114 0
-145 -181 -151 -109 0
-146 -182 -152 -110 0
-147 -183 -153 -111 0
-148 -184 -154 -112 0
-149 -185 -155 -113 0
-150 -186 -156 -114 0
-151 -298 0
-151 -299 0
-151 -300 0
-152 298 0
-152 -299 0
-152 -300 0
-153 -298 0
-153 299 0
-153 -300 0
-154 298 0
-154 299 0
-154 -300 0
-155 -298 0
-155 -299 0
-155 300 0
-156 298 0
-156 -299 0
-156 300 0
151 152 153 154 155 156 0
-151 187 157 115 0
-151 187 157 145 0
-151 187 115 145 0
-151 157 115 145 0
-152 188 158 116 0
-152 188 158 146 0
-152 188 116 146 0
-152 158 116 146 0
-153 189 159 117 0
-153 189 159 147 0
-153 189 117 147 0
-153 159 117 147 0
-154 190 160 118 0
-154 190 160 148 0
-154 190 118 148 0
-154 160 118 148 0
-155 191 161 119 0
-155 191 161 149 0
-155 191 119 149 0
-155 161 119 149 0
-156 192 162 120 0
-156 192 162 150 0
-156 192 120 150 0
-156 162 120 150 0
-151 -187 -157 -115 0
-151 -187 -157 -145 0
-151 -187 -115 -145 0
-151 -157 -115 -145 0
-152 -188 -158 -116 0
-152 -188 -158 -146 0
-152 -188 -116 -146 0
-152 -158 -116 -146 0
-153 -189 -159 -117 0
-153 -189 -159 -147 0
-153 -189 -117 -147 0
-153 -159 -117 -147 0
-154 -190 -160 -118 0
-154 -190 -160 -148 0
-154 -190 -118 -148 0
-154 -160 -118 -148 0
-155 -191 -161 -119 0
-155 -191 -161 -149 0
-155 -191 -119 -149 0
-155 -161 -119 -149 0
-156 -192 -162 -120 0
-156 -192 -162 -150 0
-156 -192 -120 -150 0
-156 -162 -120 -150 0
-157 -301 0
-157 -302 0
-157 -303 0
-158 301 0
-158 -302 0
-158 -303 0
-159 -301 0
-159 302 0
-159 -303 0
-160 301 0
-160 302 0
-160 -303 0
-161 -301 0
-161 -302 0
-161 303 0
-162 301 0
-162 -302 0
-162 303 0
157 158 159 160 161 162 0
-157 193 163 121 0
-157 193 163 151 0
-157 193 121 151 0
-157 163 121 151 0
-158 194 164 122 0
-158 194 164 152 0
-158 194 122 152 0
-158 164 122 152 0
-159 195 165 123 0
-159 195 165 153 0
-159 195 123 153 0
-159 165 123 153 0
-160 196 166 124 0
-160 196 166 154 0
-160 196 124 154 0
-160 166 124 154 0
-161 197 167 125 0
-161 197 167 155 0
-161 197 125 155 0
-161 167 125 155 0
-162 198 168 126 0
-162 198 168 156 0
-162 198 126 156 0
-162 168 126 156 0
-157 -193 -163 -121 0
-157 -193 -163 -151 0
-157 -193 -121 -151 0
-157 -163 -121 -151 0
-158 -194 -164 -122 0
-158 -194 -164 -152 0
-158 -194 -122 -152 0
-158 -164 -122 -152 0
-159 -195 -165 -123 0
-159 -195 -165 -153 0
-159 -195 -123 -153 0
-159 -165 -123 -153 0
-160 -196 -166 -124 0
-160 -196 -166 -154 0
-160 -196 -124 -154 0
-160 -166 -124 -154 0
-161 -197 -167 -125 0
-161 -197 -167 -155 0
-161 -197 -125 -155 0
-161 -167 -125 -155 0
-162 -198 -168 -126 0
-162 -198 -168 -156 0
-162 -198 -126 -156 0
-162 -168 -126 -156 0
166 0
-163 0
-164 0
-165 0
-167 0
-168 0
202 172 130 160 0
-202 -172 0
-202 -130 0
-202 -160 0
-172 -130 0
-172 -160 0
-130 -160 0
170 0
-169 0
-171 0
-172 0
-173 0
-174 0
206 176 134 164 0
-206 -176 0
-206 -134 0
-206 -164 0
-176 -134 0
-176 -164 0
-134 -164 0
-175 -310 0
-175 -311 0
-175 -312 0
-176 310 0
-176 -311 0
-176 -312 0
-177 -310 0
-177 311 0
-177 -312 0
-178 310 0
-178 311 0
-178 -312 0
-179 -310 0
-179 -311 0
-179 312 0
-180 310 0
-180 -311 0
-180 312 0
175 176 177 178 179 180 0
-175 211 169 0
-175 211 139 0
-175 169 139 0
-176 212 170 0
-176 212 140 0
-176 170 140 0
-177 213 171 0
-177 213 141 0
-177 171 141 0
-178 214 172 0
-178 214 142 0
-178 172 142 0
-179 215 173 0
-179 215 143 0
-179 173 143 0
-180 216 174 0
-180 216 144 0
-180 174 144 0
-175 -211 -169 -139 0
-176 -212 -170 -140 0
-177 -213 -171 -141 0
-178 -214 -172 -142 0
-179 -215 -173 -143 0
-180 -216 -174 -144 0
-181 -313 0
-181 -314 0
-181 -315 0
-182 313 0
-182 -314 0
-182 -315 0
-183 -313 0
-183 314 0
-183 -315 0
-184 313 0
-184 314 0
-184 -315 0
-185 -313 0
-185 -314 0
-185 315 0
-186 313 0
-186 -314 0
-186 315 0
181 182 183 184 185 186 0
-181 145 0
-181 187 0
-182 146 0
-182 188 0
-183 147 0
-183 189 0
-184 148 0
-184 190 0
-185 149 0
-185 191 0
-186 150 0
-186 192 0
-187 -316 0
-187 -317 0
-187 -318 0
-188 316 0
-188 -317 0
-188 -318 0
-189 -316 0
-189 317 0
-189 -318 0
-190 316 0
-190 317 0
-190 -318 0
-191 -316 0
-191 -317 0
-191 318 0
-192 316 0
-192 -317 0
-192 318 0
187 188 189 190 191 192 0
-187 151 193 0
-187 151 181 0
-187 193 181 0
-188 152 194 0
-188 152 182 0
-188 194 182 0
-189 153 195 0
-189 153 183 0
-189 195 183 0
-190 154 196 0
-190 154 184 0
-190 196 184 0
-191 155 197 0
-191 155 185 0
-191 197 185 0
-192 156 198 0
-192 156 186 0
-192 198 186 0
-187 -151 -193 -181 0
-188 -152 -194 -182 0
-189 -153 -195 -183 0
-190 -154 -196 -184 0
-191 -155 -197 -185 0
-192 -156 -198 -186 0
-193 -319 0
-193 -320 0
-193 -321 0
-194 319 0
-194 -320 0
-194 -321 0
-195 -319 0
-195 320 0
-195 -321 0
-196 319 0
-196 320 0
-196 -321 0
-197 -319 0
-197 -320 0
-197 321 0
-198 319 0
-198 -320 0
-198 321 0
193 194 195 196 197 198 0
-193 157 199 0
-193 157 187 0
-193 199 187 0
-194 158 200 0
-194 158 188 0
-194 200 188 0
-195 159 201 0
-195 159 189 0
-195 201 189 0
-196 160 202 0
-196 160 190 0
-196 202 190 0
-197 161 203 0
-197 161 191 0
-197 203 191 0
-198 162 204 0
-198 162 192 0
-198 204 192 0
-193 -157 -199 -187 0
-194 -158 -200 -188 0
-195 -159 -201 -189 0
-196 -160 -202 -190 0
-197 -161 -203 -191 0
-198 -162 -204 -192 0
-199 -322 0
-199 -323 0
-199 -324 0
-200 322 0
-200 -323 0
-200 -324 0
-201 -322 0
-201 323 0
-201 -324 0
-202 322 0
-202 323 0
-202 -324 0
-203 -322 0
-203 -323 0
-203 324 0
-204 322 0
-204 -323 0
-204 324 0
199 200 201 202 203 204 0
-199 163 205 0
-199 163 193 0
-199 205 193 0
-200 164 206 0
-200 164 194 0
-200 206 194 0
-201 165 207 0
-201 165 195 0
-201 207 195 0
-202 166 208 0
-202 166 196 0
-202 208 196 0
-203 167 209 0
-203 167 197 0
-203 209 197 0
-204 168 210 0
-204 168 198 0
-204 210 198 0
-199 -163 -205 -193 0
-200 -164 -206 -194 0
-201 -165 -207 -195 0
-202 -166 -208 -196 0
-203 -167 -209 -197 0
-204 -168 -210 -198 0
-205 -325 0
-205 -326 0
-205 -327 0
-206 325 0
-206 -326 0
-206 -327 0
-207 -325 0
-207 326 0
-207 -327 0
-208 325 0
-208 326 0
-208 -327 0
-209 -325 0
-209 -326 0
-209 327 0
-210 325 0
-210 -326 0
-210 327 0
205 206 207 208 209 210 0
-205 169 211 0
-205 169 199 0
-205 211 199 0
-206 170 212 0
-206 170 200 0
-206 212 200 0
-207 171 213 0
-207 171 201 0
-207 213 201 0
-208 172 214 0
-208 172 202 0
-208 214 202 0
-209 173 215 0
-209 173 203 0
-209 215 203 0
-210 174 216 0
-210 174 204 0
-210 216 204 0
-205 -169 -211 -199 0
-206 -170 -212 -200 0
-207 -171 -213 -201 0
-208 -172 -214 -202 0
-209 -173 -215 -203 0
-210 -174 -216 -204 0
-211 -328 0
-211 -329 0
-211 -330 0
-212 328 0
-212 -329 0
-212 -330 0
-213 -328 0
-213 329 0
-213 -330 0
-214 328 0
-214 329 0
-214 -330 0
-215 -328 0
-215 -329 0
-215 330 0
-216 328 0
-216 -329 0
-216 330 0
211 212 213 214 215 216 0
-211 175 0
-211 205 0
-212 176 0
-212 206 0
-213 177 0
-213 207 0
-214 178 0
-214 208 0
-215 179 0
-215 209 0
-216 180 0
-216 210 0
7 79 115 151 187 0
50 56 62 68 0
80 98 104 0
116 128 134 140 0
51 57 63 69 0
81 99 105 0
9 81 117 153 189 0
51 159 195 0
57 129 201 0
118 130 136 142 0
10 82 118 154 190 0
52 160 196 0